Problem:    simpleExample2
Rows:       3
Columns:    2
Non-zeros:  6
Status:     OPTIMAL
Objective:  z = 11.1 (MAXimum)

   No.   Row name   St   Activity     Lower bound   Upper bound    Marginal
------ ------------ -- ------------- ------------- ------------- -------------
     1 z            B           11.1                             
     2 Constraint_1 NU            12                          12           0.4
     3 Constraint_2 NU             9                           9           0.7

   No. Column name  St   Activity     Lower bound   Upper bound    Marginal
------ ------------ -- ------------- ------------- ------------- -------------
     1 x1           B            1.2             0               
     2 x2           B            2.1             0               

Karush-Kuhn-Tucker optimality conditions:

KKT.PE: max.abs.err. = 8.88e-16 on row 1
        max.rel.err. = 7.34e-17 on row 1
        High quality

KKT.PB: max.abs.err. = 0.00e+00 on row 0
        max.rel.err. = 0.00e+00 on row 0
        High quality

KKT.DE: max.abs.err. = 1.11e-16 on column 1
        max.rel.err. = 2.22e-17 on column 1
        High quality

KKT.DB: max.abs.err. = 0.00e+00 on row 0
        max.rel.err. = 0.00e+00 on row 0
        High quality

End of output
